c This is a pigeonhole problem with 4 pigeons and 3 holes
p cnf 4 18
d 1 3
d 2 3
d 3 3
d 4 3
2!=0 1!=0 0
3!=0 1!=0 0
3!=0 2!=0 0
4!=0 1!=0 0
4!=0 2!=0 0
4!=0 3!=0 0
2!=1 1!=1 0
3!=1 1!=1 0
3!=1 2!=1 0
4!=1 1!=1 0
4!=1 2!=1 0
4!=1 3!=1 0
2!=2 1!=2 0
3!=2 1!=2 0
3!=2 2!=2 0
4!=2 1!=2 0
4!=2 2!=2 0
4!=2 3!=2 0
